5 5
5 5 2 4 4 16 5 12 1 14 3 5 1 1 17 3 3 15 5 11 1 14 5 2 2 1 13 3 9 4 10 5 20 5 3 16 1 19 4 9 2 13 5 4
4 1 2 17 1 5 4 3 5 15 1 16 4 7 1 4 3
7 3 1 14 2 8 5 6 5 2 10 1 14 5 3 4 12 3 11 4 1 3 5 16 3 17 4 4 4 1 10 5 6 2 2 4 11 5 5 20 4 15 3 9 1 14 2 11 5 3 4 1 13 5 17 2 13 4 13 5 2 13 3 18 1 15 5 15 4 6
8 2 1 7 5 9 4 1 3 4 11 5 11 3 3 4 3 3 1 20 2 6 5 4 5 3 19 4 3 5 13 1 9 2 14 1 4 9 4 5 2 3 19 1 9 2 16 1 5 2 4 4 11 1 15 2 4 5 8
4 2 2 7 4 2 4 3 12 1 10 4 10 2 8 2 3 8 4 3 1 1 6